100
32
5
4
7
22
17
28
8
1
10
3
11
9
7
19
6
10
1
26
14
1
11
1
3
10
1
11
2
16
1
17
1
1
3
17
1
2
1
2
1
3
4
2
5
6
4
22
2
1
2
2
17
1
2
1
1
1
2
2
1
17
3
2
3
2
1
1
1
1
2
1
1
2
1
17
6
19
3
5
3
1
1
1
2
1
1
4
4
2
1
2
2
2
2
3
17
1
6
2
2
2